c --- [ banner ] -------------------------------------------------------------
c 
c CaDiCaL Radically Simplified CDCL SAT Solver
c Copyright (c) 2016-2021 A. Biere, M. Fleury, N. Froleyks
c 
c Version 1.5.2 ca2dd1661408261d5d9922f656c807ded88978da
c g++ (Ubuntu 7.5.0-3ubuntu1~18.04) 7.5.0 -Wall -Wextra -O3 -DNDEBUG
c Sat Feb 26 22:54:12 EST 2022 Linux fac-vanhoeve01 5.4.0-99-generic x86_64
c 
c --- [ parsing input ] ------------------------------------------------------
c 
c reading DIMACS file from '<stdin>' (use '-h' for a list of common options)
c found 'p cnf 2692 7976' header
c parsed 7976 clauses in 0.00 seconds process time
c disconnecting from '<stdin>'
c after reading 106558 bytes 0.1 MB
c 
c --- [ options ] ------------------------------------------------------------
c 
c all options are set to their default value
c 
c --- [ solving ] ------------------------------------------------------------
c 
c time measured in process time since initialization
c 
c  seconds  reductions  redundant irredundant
c         MB    restarts       trail    variables
c          level   conflicts       glue      remaining
c 
c *  0.00  4  0 0   0    0    0  0% 0 7974 2618 97%
c {  0.01  4  0 0   0    0    0  0% 0 7974 2618 97%
c -  0.02  5 66 1  42  300  288 77% 8 7902 2618 97%
c -  0.07  5 38 2 146  904  748 84% 9 7902 2618 97%
c }  0.07  5 37 2 148 1001  844 85% 9 7902 2618 97%
c [  0.07  5  0 2 148 1001  844  0% 0 7902 2618 97%
c O  0.07  5 14 2 148 1002  845 95% 8 7902 2618 97%
c -  0.12  6 17 3 148 1806  950 94% 13 7902 2618 97%
c ]  0.19  6 16 3 149 3002 1732 93% 13 7902 2618 97%
c {  0.19  6 37 3 149 3002 1732 85% 9 7902 2618 97%
c F  0.19  6 37 3 149 3003 1733 85% 9 7902 2618 97%
c -  0.19  6 37 4 149 3008 1233 85% 9 7902 2618 97%
c s  0.20  6 34 4 164 3215 1429 86% 9 7902 2618 97%
c e  0.23  6 34 4 164 3215   43 86% 9 5683 885 33%
c s  0.23  6 34 4 164 3215   39 86% 9 5683 885 33%
c -  0.29  6 26 5 304 4508 1243 84% 9 5683 885 33%
c p  0.32  6 25 5 357 5003 1707 84% 9 5683 885 33%
c #  0.36  6 24 5 420 6010 2664 85% 9 5683 885 33%
c -  0.37  6 23 6 426 6310 2316 85% 9 5683 885 33%
c }  0.41  6 23 6 488 7005 2983 85% 9 5683 885 33%
c 
c  seconds  reductions  redundant   irredundant
c         MB    restarts       trail      variables
c          level   conflicts        glue      remaining
c 
c [  0.41  6 16 6 488 7005 2983 283% 13 5683 885 33%
c -  0.47  7 18 7 489 8410 2881 202% 14 5683 885 33%
c I  0.55  7 20 7 490 10011 4290 166% 15 5683 885 33%
c -  0.59  7 23 8 491 10810 3162 154% 16 5683 885 33%
c -  0.74  7 27 9 493 13510 3452 133% 18 5683 885 33%
c s  0.77  7 27 9 493 13947 3815 130% 19 5683 885 33%
c w  0.78  7 27 9 493 13947 3815 130% 19 5683 885 33%
c s  0.79  7 27 9 493 13947 3814 130% 19 5683 885 33%
c ^  0.79  7 27 9 493 13947 3814 130% 19 5683 885 33%
c ]  0.85  7 28 9 493 15007 4679 126% 20 5683 885 33%
c {  0.85  7 23 9 493 15007 4679 85% 9 5683 885 33%
c p  0.86  7 23 9 494 15007 4703 85% 9 5683 885 33%
c B  0.86  7 23 9 495 15013 4709 85% 9 5683 885 33%
c -  0.94  7 23 10 669 16513 4080 83% 10 5683 885 33%
c -  1.09  6 22 11 846 19813 4544 84% 10 5683 885 33%
c W  1.16  6 22 11 916 21014 5661 85% 10 5683 885 33%
c -  1.27  7 21 12 1097 23414 5177 84% 10 5683 885 33%
c -  1.46  8 21 13 1322 27314 5779 83% 10 5683 885 33%
c F  1.49  8 21 13 1381 28017 6441 83% 10 5683 885 33%
c p  1.58  8 20 13 1452 30008 8309 83% 10 5683 885 33%
c 
c  seconds  reductions     redundant  irredundant
c         MB     restarts         trail     variables
c          level      conflicts       glue      remaining
c 
c s  1.59  8 20 13 1457 30046 8336 83% 10 5683 885 33%
c w  1.60  8 20 13 1457 30046 8335 83% 10 5683 885 33%
c s  1.61  8 20 13 1457 30046 8335 83% 10 5683 885 33%
c ^  1.62  8 20 13 1457 30046 8335 83% 10 5683 885 33%
c }  1.66  8 20 13 1481 31008 9175 83% 10 5683 885 33%
c [  1.66  8 28 13 1481 31008 9175 126% 20 5683 885 33%
c -  1.69  8 27 14 1481 31515 6345 123% 19 5683 885 33%
c -  1.91  8 23 15 1484 36016 6199 108% 16 5683 885 33%
c B  1.91  8 23 15 1484 36020 6203 108% 16 5683 885 33%
c -  2.18  7 26 16 1487 40817 6389 103% 18 5683 885 33%
c W  2.44  7 26 16 1488 45022 9728 101% 18 5683 885 33%
c -  2.51  7 26 17 1489 45917 6518 100% 18 5683 885 33%
c p  2.76  7 26 17 1489 50013 9592 99% 19 5683 885 33%
c -  2.84  7 26 18 1489 51317 6731 98% 19 5683 885 33%
c s  2.86  7 26 18 1489 51510 6892 98% 19 5683 885 33%
c w  2.87  7 26 18 1489 51510 6891 98% 19 5683 885 33%
c s  2.88  7 26 18 1489 51510 6890 98% 19 5683 885 33%
c ^  2.88  7 26 18 1489 51510 6890 98% 19 5683 885 33%
c O  3.08  7 26 18 1490 55023 9775 97% 19 5683 885 33%
c -  3.19  7 26 19 1492 57017 7378 96% 19 5683 885 33%
c 
c  seconds  reductions      redundant  irredundant
c         MB     restarts          trail     variables
c          level      conflicts        glue      remaining
c 
c ]  3.49  7 26 19 1496 63008 11811 95% 19 5683 885 33%
c {  3.49  7 20 19 1496 63008 11811 83% 10 5683 885 33%
c -  3.50  7 20 20 1496 63017 7254 83% 10 5683 885 33%
c B  3.64  7 21 20 1774 66024 10045 83% 10 5683 885 33%
c -  3.82  8 20 21 1955 69319 8737 83% 10 5683 885 33%
c p  4.11  8 20 21 2344 75013 13921 83% 10 5683 885 33%
c -  4.17  9 20 22 2373 75920 9875 83% 10 5683 885 33%
c W  4.30  9 20 22 2431 78025 11801 83% 10 5683 885 33%
c s  4.34  9 20 22 2465 78340 12031 83% 10 5683 885 33%
c w  4.36  9 20 22 2465 78340 12028 83% 10 5683 885 33%
c s  4.38  9 20 22 2465 78340 12026 83% 10 5683 885 33%
c ^  4.38  9 20 22 2465 78340 12026 83% 10 5683 885 33%
c -  4.63  9 20 23 2786 82824 10995 82% 10 5683 885 33%
c -  5.02  9 19 24 3329 90025 11426 82% 10 5683 885 33%
c #  5.07  9 19 24 3393 91027 12312 82% 10 5683 885 33%
c -  5.42 10 19 25 3874 97527 12247 83% 10 5683 885 33%
c p  5.83 10 19 25 4346 105017 19150 83% 10 5683 880 33%
c B  5.83 10 19 25 4346 105031 19164 83% 10 5683 880 33%
c -  5.86  9 19 26 4398 105327 12821 83% 10 5668 880 33%
c s  6.16  9 19 26 4730 110535 17488 82% 10 5661 880 33%
c 
c  seconds  reductions       redundant  irredundant
c         MB     restarts           trail     variables
c          level      conflicts         glue      remaining
c 
c w  6.19  9 19 26 4730 110535 17487 82% 10 5661 880 33%
c e  6.20  9 19 26 4730 110535 4443 82% 10 8077 564 21%
c s  6.22  9 19 26 4730 110535 4440 82% 10 8077 564 21%
c ^  6.22  9 19 26 4730 110535 4440 82% 10 8077 564 21%
c -  6.35  9 19 27 4849 113427 5466 77% 10 8077 564 21%
c W  6.72  9 19 27 5311 120033 11502 79% 10 8077 564 21%
c -  6.81  9 19 28 5414 121830 10592 80% 10 8077 564 21%
c }  7.07  9 19 28 5721 127008 15358 81% 10 8077 564 21%
c [  7.07  9 26 28 5721 127008 15358 148% 19 8077 564 21%
c -  7.28 10 25 29 5721 130530 13096 143% 18 8077 564 21%
c B  7.59 10 25 29 5726 136035 18052 135% 17 8077 564 21%
c -  7.81  9 26 30 5728 139531 13712 132% 18 8077 564 21%
c p  7.85  9 26 30 5728 140020 14147 131% 18 8077 564 21%
c -  8.36 11 26 31 5729 148831 13277 123% 18 8077 564 21%
c W  8.68 11 26 31 5730 153037 16683 120% 18 8077 564 21%
c -  9.00 11 28 32 5730 158432 13785 117% 19 8077 564 21%
c s  9.38 11 30 32 5730 164297 19061 114% 20 8077 564 21%
c w  9.41 11 30 32 5730 164297 19059 114% 20 8077 564 21%
c s  9.43 11 30 32 5730 164297 19053 114% 20 8077 564 21%
c -  9.70 11 30 33 5731 168332 14212 112% 20 8077 564 21%
c 
c  seconds  reductions       redundant   irredundant
c         MB     restarts           trail      variables
c          level      conflicts          glue      remaining
c 
c I  9.86 11 30 33 5733 171039 16371 111% 20 8077 564 21%
c - 10.37 11 30 34 5737 178536 14372 108% 20 8077 564 21%
c p 10.48 11 30 34 5737 180022 15738 108% 20 8077 564 21%
c - 11.13 10 29 35 5744 189037 14648 105% 20 8077 564 21%
c B 11.20 10 29 35 5744 190042 15537 105% 20 8077 564 21%
c - 11.84 12 31 36 5745 199837 15073 102% 20 8077 564 21%
c W 12.60 12 30 36 5752 210044 22991 100% 20 8077 564 21%
c - 12.68 10 30 37 5752 210939 14653 100% 20 8077 564 21%
c - 13.45 12 29 38 5759 222339 14301 98% 19 8077 564 21%
c p 13.63 12 28 38 5759 225023 16239 97% 19 8077 564 21%
c O 14.03 12 28 38 5760 231047 20380 97% 19 8077 564 21%
c - 14.22 12 27 39 5760 234039 14769 96% 19 8077 564 21%
c - 15.01 12 27 40 5761 246040 15467 95% 19 8077 564 21%
c B 15.49 12 26 40 5762 253048 21106 94% 18 8077 564 21%
c ] 15.62 12 26 40 5762 255011 22516 94% 18 8077 564 21%
c { 15.62 12 19 40 5762 255011 22516 81% 10 8077 564 21%
c - 15.85 13 19 41 5985 258341 17263 81% 10 8077 564 21%
c - 16.58 15 19 42 6829 270942 18859 81% 10 8077 564 21%
c p 16.87 15 19 42 7341 275023 22673 81% 10 8077 564 21%
c F 16.93 15 19 42 7387 276049 23643 81% 10 8077 564 21%
c 
c  seconds  reductions       redundant  irredundant
c         MB     restarts           trail     variables
c          level      conflicts         glue      remaining
c 
c - 17.49 11 19 43 8069 283842 20932 82% 10 8077 564 21%
c - 18.36 13 19 44 8963 297045 21542 81% 10 8077 564 21%
c B 18.54 13 19 44 9056 300051 24334 81% 10 8077 564 21%
c - 19.26 15 19 45 9729 310545 22736 81% 10 8077 564 21%
c - 20.13 13 19 46 10538 324347 23283 80% 10 8077 564 21%
c W 20.27 13 19 46 10602 325052 23927 80% 10 8077 564 21%
c p 20.59 13 19 46 10922 330026 28279 80% 10 8077 562 21%
c s 20.64 13 19 46 10922 330026 28199 80% 10 8077 562 21%
c v 20.67 13 19 46 10922 330026 28199 80% 10 8055 562 21%
c w 20.70 13 19 46 10922 330026 28185 80% 10 8055 562 21%
c s 20.75 13 19 46 10922 330026 28179 80% 10 8045 562 21%
c - 21.39 15 19 47 11565 338447 24850 81% 10 8045 562 21%
c # 22.24 15 18 47 12500 351053 36007 79% 10 8045 562 21%
c - 22.39 13 18 48 12623 352847 25033 80% 10 8045 562 21%
c - 23.45 15 18 49 13815 367550 26528 80% 10 8045 562 21%
c B 24.27 15 19 49 14954 378054 36227 80% 10 8045 562 21%
c - 24.62 13 19 50 15165 382551 26988 80% 10 8045 562 21%
c p 25.18 13 19 50 15610 390026 33798 81% 10 8045 560 21%
c - 25.76 15 19 51 16001 397851 27858 81% 10 8035 560 21%
c s 25.90 15 18 51 16062 399139 28869 81% 10 8019 560 21%
c 
c  seconds  reductions        redundant  irredundant
c         MB      restarts           trail     variables
c          level       conflicts         glue      remaining
c 
c w 25.94 15 18 51 16062 399139 28863 81% 10 8019 560 21%
c s 26.00 15 18 51 16062 399139 28856 81% 10 8019 560 21%
c W 26.65 15 19 51 16629 406056 35110 81% 10 8019 560 21%
c - 27.29 13 19 52 17433 413452 29017 81% 10 8019 560 21%
c - 28.55 15 19 53 18809 429352 29306 81% 10 8019 560 21%
c F 28.95 15 19 53 19211 435058 34505 81% 10 8019 560 21%
c - 29.71 13 18 54 19693 445552 29542 81% 10 8019 560 21%
c p 30.45 13 18 54 20427 455026 37838 81% 10 8019 560 21%
c - 31.18 16 18 55 21366 462052 31097 81% 10 8019 560 21%
c B 31.41 16 18 55 21602 465059 33687 81% 10 8019 560 21%
c - 32.46 14 18 56 22324 478853 31509 82% 10 8019 560 21%
c - 33.90 16 18 57 23721 495955 32532 82% 10 8019 560 21%
c W 34.05 16 18 57 23749 496060 32634 82% 10 8019 560 21%
c } 35.31 16 18 57 25147 511013 46283 82% 10 8019 560 21%
c [ 35.31 16 26 57 25147 511013 46283 94% 18 8019 560 21%
c - 35.48 17 26 58 25147 513355 33645 93% 18 8019 560 21%
c p 36.22 17 26 58 25147 525027 43822 92% 18 8019 560 21%
c W 36.66 17 27 58 25147 528061 46742 92% 18 8019 560 21%
c - 36.92 15 27 59 25147 531057 33087 92% 18 8019 560 21%
c - 38.42 17 27 60 25154 549058 30249 91% 19 8019 560 21%
c 
c  seconds  reductions        redundant  irredundant
c         MB      restarts           trail     variables
c          level       conflicts         glue      remaining
c 
c I 39.47 17 27 60 25160 561063 40202 91% 19 8019 560 21%
c - 40.05 15 27 61 25162 567358 29658 90% 19 8019 560 21%
c - 41.67 17 26 62 25169 585960 28549 90% 19 8019 560 21%
c B 42.45 17 26 62 25176 595064 36222 90% 19 8019 560 21%
c p 42.86 17 27 62 25177 600027 40925 90% 19 8019 560 21%
c - 43.28 15 28 63 25177 604862 31066 89% 19 8019 560 21%
c - 45.12 16 30 64 25179 624064 32161 89% 21 8019 560 21%
c W 45.84 16 30 64 25184 630065 37421 89% 21 8019 560 21%
c - 47.02 17 32 65 25191 643564 33229 89% 22 8019 560 21%
c - 48.97 17 32 66 25199 663364 33421 89% 22 8019 560 21%
c O 49.22 17 32 66 25200 666066 35703 89% 22 8019 560 21%
c p 50.28 17 30 66 25207 680027 46027 88% 21 8019 560 21%
c - 50.59 15 30 67 25208 683465 30554 88% 21 8019 560 21%
c B 52.05 15 28 67 25209 703069 44506 88% 20 8019 560 21%
c - 52.15 17 28 68 25209 703865 30194 88% 20 8019 560 21%
c - 53.82 21 30 69 25210 724566 33536 88% 20 8019 560 21%
c W 55.58 21 31 69 25211 741070 48611 88% 21 8019 560 21%
c - 56.02 21 31 70 25211 745568 35637 88% 21 8019 560 21%
c p 57.75 21 30 70 25211 765028 51852 87% 20 8019 560 21%
c - 58.01 21 30 71 25211 766868 34164 87% 20 8019 560 21%
c 
c  seconds  reductions        redundant  irredundant
c         MB      restarts           trail     variables
c          level       conflicts         glue      remaining
c 
c I 59.25 21 29 71 25211 780071 43891 87% 20 8019 560 21%
c - 59.99 21 30 72 25211 788471 34927 87% 20 8019 560 21%
c s 60.06 21 30 72 25211 788471 34841 87% 20 8019 560 21%
c w 60.15 21 30 72 25211 788471 34815 87% 20 8019 560 21%
c - 62.13 21 29 73 25215 810372 36436 86% 20 8019 560 21%
c B 62.92 21 29 73 25220 820074 43791 86% 20 8019 560 21%
c - 64.16 21 29 74 25226 832572 33361 86% 20 8019 560 21%
c p 66.44 21 28 74 25236 855030 51529 86% 20 8019 560 21%
c - 66.49 21 28 75 25236 855072 35049 86% 20 8019 560 21%
c ] 67.14 21 28 75 25240 861074 39455 86% 20 8019 560 21%
c 1 67.14 21 28 75 25240 861074 39455 86% 20 8019 560 21%
c 
c --- [ result ] -------------------------------------------------------------
c 
s SATISFIABLE
v -1 -2 -3 -4 -5 -6 -7 -8 -9 -10 11 -12 -13 -14 -15 16 -17 18 -19 -20 21 -22
v -23 24 -25 -26 -27 -28 -29 30 -31 -32 -33 -34 -35 -36 -37 -38 -39 -40 -41
v -42 -43 -44 -45 -46 47 -48 -49 -50 -51 -52 -53 -54 -55 56 -57 -58 -59 -60
v -61 -62 -63 -64 -65 -66 -67 -68 69 70 71 72 73 -74 -75 -76 77 -78 -79 -80
v -81 -82 -83 -84 85 -86 -87 -88 89 -90 -91 -92 -93 -94 -95 96 97 -98 -99 100
v -101 -102 -103 -104 -105 -106 -107 -108 -109 -110 111 -112 -113 -114 -115
v -116 -117 118 -119 -120 -121 -122 123 -124 -125 -126 -127 -128 -129 -130 131
v -132 -133 -134 -135 -136 -137 -138 -139 140 141 -142 -143 -144 -145 -146
v -147 148 -149 -150 -151 -152 153 -154 -155 -156 -157 -158 -159 -160 161 162
v -163 164 -165 -166 -167 168 -169 -170 -171 -172 173 -174 -175 -176 -177 -178
v 179 -180 -181 -182 183 -184 -185 -186 -187 -188 -189 -190 -191 -192 -193
v -194 -195 -196 -197 198 -199 -200 201 -202 -203 -204 -205 -206 -207 -208
v -209 210 -211 -212 -213 -214 -215 -216 -217 218 -219 -220 -221 -222 -223
v -224 -225 -226 -227 -228 -229 -230 231 232 233 234 -235 -236 -237 -238 -239
v 240 -241 -242 -243 -244 -245 -246 -247 -248 -249 -250 -251 -252 -253 -254
v -255 -256 -257 -258 -259 -260 261 262 -263 -264 265 266 -267 268 269 270
v -271 272 -273 274 275 276 -277 -278 -279 280 -281 282 -283 -284 -285 -286
v -287 288 -289 290 291 -292 -293 294 -295 296 -297 298 -299 -300 301 -302
v -303 304 -305 306 -307 -308 309 -310 311 312 313 314 315 -316 317 318 -319
v -320 321 -322 -323 -324 -325 -326 -327 -328 -329 -330 -331 -332 -333 -334
v 335 336 337 338 339 340 341 342 343 344 345 346 347 348 349 350 351 352 353
v 354 355 356 357 358 359 360 361 362 363 364 365 366 367 368 369 370 371 372
v 373 374 375 376 377 378 379 380 381 382 383 384 385 386 387 388 389 390 391
v 392 393 394 395 396 397 398 -399 -400 -401 -402 -403 -404 -405 -406 -407
v -408 -409 410 411 412 413 414 415 416 417 418 419 420 421 422 423 424 425
v 426 427 428 429 430 431 432 433 434 435 436 437 438 439 440 441 442 443 444
v 445 446 447 448 449 450 451 452 453 454 455 456 457 458 459 460 461 462 463
v 464 465 466 467 468 469 470 471 472 -473 -474 -475 -476 -477 -478 -479 -480
v -481 -482 -483 -484 -485 -486 487 488 489 490 491 492 493 494 495 496 497
v 498 499 500 501 502 503 504 505 506 507 508 509 510 511 512 513 514 515 516
v 517 518 519 520 521 522 523 524 525 526 527 528 529 530 531 532 533 534 535
v 536 537 538 539 540 541 542 543 544 545 546 -547 -548 -549 -550 -551 -552
v -553 -554 -555 -556 -557 -558 -559 -560 -561 562 563 564 565 566 567 568 569
v 570 571 572 573 574 575 576 577 578 579 580 581 582 583 584 585 586 587 588
v 589 590 591 592 593 594 595 596 597 598 599 600 601 602 603 604 605 606 607
v 608 609 610 611 612 613 614 615 616 617 618 619 620 -621 -622 -623 -624 -625
v -626 -627 -628 -629 -630 -631 -632 -633 -634 -635 -636 -637 638 639 640 641
v 642 643 644 645 646 647 648 649 650 651 652 653 654 655 656 657 658 659 660
v 661 662 663 664 665 666 667 668 669 670 671 672 673 674 675 676 677 678 679
v 680 681 682 683 684 685 686 687 688 689 690 691 692 693 694 -695 -696 -697
v -698 -699 -700 -701 -702 -703 -704 -705 -706 -707 -708 -709 -710 -711 -712
v 713 714 715 716 717 718 719 720 721 722 723 724 725 726 727 728 729 730 731
v 732 733 734 735 736 737 738 739 740 741 742 743 744 745 746 747 748 749 750
v 751 752 753 754 755 756 757 758 759 760 761 762 763 764 765 766 767 768 -769
v -770 -771 -772 -773 -774 -775 -776 -777 -778 -779 -780 -781 -782 -783 -784
v -785 -786 -787 788 789 790 791 792 793 794 795 796 797 798 799 800 801 802
v 803 804 805 806 807 808 809 810 811 812 813 814 815 816 817 818 819 820 821
v 822 823 824 825 826 827 828 829 830 831 832 833 834 835 836 837 838 839 840
v 841 842 -843 -844 -845 -846 -847 -848 -849 -850 -851 -852 -853 -854 -855
v -856 -857 -858 -859 -860 -861 -862 -863 864 865 866 867 868 869 870 871 872
v 873 874 875 876 877 878 879 880 881 882 883 884 885 886 887 888 889 890 891
v 892 893 894 895 896 897 898 899 900 901 902 903 904 905 906 907 908 909 910
v 911 912 913 914 915 916 -917 -918 -919 -920 -921 -922 -923 -924 -925 -926
v -927 -928 -929 -930 -931 -932 -933 -934 -935 -936 -937 -938 -939 940 941 942
v 943 944 945 946 947 948 949 950 951 952 953 954 955 956 957 958 959 960 961
v 962 963 964 965 966 967 968 969 970 971 972 973 974 975 976 977 978 979 980
v 981 982 983 984 985 986 987 988 989 990 -991 -992 -993 -994 -995 -996 -997
v -998 -999 -1000 -1001 -1002 -1003 -1004 -1005 -1006 -1007 -1008 -1009 -1010
v -1011 -1012 -1013 -1014 1015 1016 1017 1018 1019 1020 1021 1022 1023 1024
v 1025 1026 1027 1028 1029 1030 1031 1032 1033 1034 1035 1036 1037 1038 1039
v 1040 1041 1042 1043 1044 1045 1046 1047 1048 1049 1050 1051 1052 1053 1054
v 1055 1056 1057 1058 1059 1060 1061 1062 1063 1064 -1065 -1066 -1067 -1068
v -1069 -1070 -1071 -1072 -1073 -1074 -1075 -1076 -1077 -1078 -1079 -1080
v -1081 -1082 -1083 -1084 -1085 -1086 -1087 -1088 -1089 1090 1091 1092 1093
v 1094 1095 1096 1097 1098 1099 1100 1101 1102 1103 1104 1105 1106 1107 1108
v 1109 1110 1111 1112 1113 1114 1115 1116 1117 1118 1119 1120 1121 1122 1123
v 1124 1125 1126 1127 1128 1129 1130 1131 1132 1133 1134 1135 1136 1137 1138
v -1139 -1140 -1141 -1142 -1143 -1144 -1145 -1146 -1147 -1148 -1149 -1150
v -1151 -1152 -1153 -1154 -1155 -1156 -1157 -1158 -1159 -1160 -1161 -1162
v -1163 -1164 -1165 -1166 -1167 1168 1169 1170 1171 1172 1173 1174 1175 1176
v 1177 1178 1179 1180 1181 1182 1183 1184 1185 1186 1187 1188 1189 1190 1191
v 1192 1193 1194 1195 1196 1197 1198 1199 1200 1201 1202 1203 1204 1205 1206
v 1207 1208 1209 1210 1211 1212 -1213 -1214 -1215 -1216 -1217 -1218 -1219
v -1220 -1221 -1222 -1223 -1224 -1225 -1226 -1227 -1228 -1229 -1230 -1231
v -1232 -1233 -1234 -1235 -1236 -1237 -1238 -1239 -1240 -1241 -1242 -1243 1244
v 1245 1246 1247 1248 1249 1250 1251 1252 1253 1254 1255 1256 1257 1258 1259
v 1260 1261 1262 1263 1264 1265 1266 1267 1268 1269 1270 1271 1272 1273 1274
v 1275 1276 1277 1278 1279 1280 1281 1282 1283 1284 1285 1286 -1287 -1288
v -1289 -1290 -1291 -1292 -1293 -1294 -1295 -1296 -1297 -1298 -1299 -1300
v -1301 -1302 -1303 -1304 -1305 -1306 -1307 -1308 -1309 -1310 -1311 -1312
v -1313 -1314 -1315 -1316 -1317 -1318 -1319 -1320 -1321 -1322 -1323 1324 1325
v 1326 1327 1328 1329 1330 1331 1332 1333 1334 1335 1336 1337 1338 1339 1340
v 1341 1342 1343 1344 1345 1346 1347 1348 1349 1350 1351 1352 1353 1354 1355
v 1356 1357 1358 1359 1360 -1361 -1362 -1363 -1364 -1365 -1366 -1367 -1368
v -1369 -1370 -1371 -1372 -1373 -1374 -1375 -1376 -1377 -1378 -1379 -1380
v -1381 -1382 -1383 -1384 -1385 -1386 -1387 -1388 -1389 -1390 -1391 -1392
v -1393 -1394 -1395 -1396 -1397 -1398 -1399 1400 1401 1402 1403 1404 1405 1406
v 1407 1408 1409 1410 1411 1412 1413 1414 1415 1416 1417 1418 1419 1420 1421
v 1422 1423 1424 1425 1426 1427 1428 1429 1430 1431 1432 1433 1434 -1435 -1436
v -1437 -1438 -1439 -1440 -1441 -1442 -1443 -1444 -1445 -1446 -1447 -1448
v -1449 -1450 -1451 -1452 -1453 -1454 -1455 -1456 -1457 -1458 -1459 -1460
v -1461 -1462 -1463 -1464 -1465 -1466 -1467 -1468 -1469 -1470 -1471 -1472
v -1473 -1474 1475 1476 1477 1478 1479 1480 1481 1482 1483 1484 1485 1486 1487
v 1488 1489 1490 1491 1492 1493 1494 1495 1496 1497 1498 1499 1500 1501 1502
v 1503 1504 1505 1506 1507 1508 -1509 -1510 -1511 -1512 -1513 -1514 -1515
v -1516 -1517 -1518 -1519 -1520 -1521 -1522 -1523 -1524 -1525 -1526 -1527
v -1528 -1529 -1530 -1531 -1532 -1533 -1534 -1535 -1536 -1537 -1538 -1539
v -1540 -1541 -1542 -1543 -1544 -1545 -1546 -1547 -1548 -1549 -1550 -1551 1552
v 1553 1554 1555 1556 1557 1558 1559 1560 1561 1562 1563 1564 1565 1566 1567
v 1568 1569 1570 1571 1572 1573 1574 1575 1576 1577 1578 1579 1580 1581 1582
v -1583 -1584 -1585 -1586 -1587 -1588 -1589 -1590 -1591 -1592 -1593 -1594
v -1595 -1596 -1597 -1598 -1599 -1600 -1601 -1602 -1603 -1604 -1605 -1606
v -1607 -1608 -1609 -1610 -1611 -1612 -1613 -1614 -1615 -1616 -1617 -1618
v -1619 -1620 -1621 -1622 -1623 -1624 -1625 -1626 -1627 1628 1629 1630 1631
v 1632 1633 1634 1635 1636 1637 1638 1639 1640 1641 1642 1643 1644 1645 1646
v 1647 1648 1649 1650 1651 1652 1653 1654 1655 1656 -1657 -1658 -1659 -1660
v -1661 -1662 -1663 -1664 -1665 -1666 -1667 -1668 -1669 -1670 -1671 -1672
v -1673 -1674 -1675 -1676 -1677 -1678 -1679 -1680 -1681 -1682 -1683 -1684
v -1685 -1686 -1687 -1688 -1689 -1690 -1691 -1692 -1693 -1694 -1695 -1696
v -1697 -1698 -1699 -1700 -1701 -1702 -1703 1704 1705 1706 1707 1708 1709 1710
v 1711 1712 1713 1714 1715 1716 1717 1718 1719 1720 1721 1722 1723 1724 1725
v 1726 1727 1728 1729 1730 -1731 -1732 -1733 -1734 -1735 -1736 -1737 -1738
v -1739 -1740 -1741 -1742 -1743 -1744 -1745 -1746 -1747 -1748 -1749 -1750
v -1751 -1752 -1753 -1754 -1755 -1756 -1757 -1758 -1759 -1760 -1761 -1762
v -1763 -1764 -1765 -1766 -1767 -1768 -1769 -1770 -1771 -1772 -1773 -1774
v -1775 -1776 -1777 -1778 -1779 -1780 1781 1782 1783 1784 1785 1786 1787 1788
v 1789 1790 1791 1792 1793 1794 1795 1796 1797 1798 1799 1800 1801 1802 1803
v 1804 -1805 -1806 -1807 -1808 -1809 -1810 -1811 -1812 -1813 -1814 -1815 -1816
v -1817 -1818 -1819 -1820 -1821 -1822 -1823 -1824 -1825 -1826 -1827 -1828
v -1829 -1830 -1831 -1832 -1833 -1834 -1835 -1836 -1837 -1838 -1839 -1840
v -1841 -1842 -1843 -1844 -1845 -1846 -1847 -1848 -1849 -1850 -1851 -1852
v -1853 -1854 -1855 -1856 -1857 1858 1859 1860 1861 1862 1863 1864 1865 1866
v 1867 1868 1869 1870 1871 1872 1873 1874 1875 1876 1877 1878 -1879 -1880
v -1881 -1882 -1883 -1884 -1885 -1886 -1887 -1888 -1889 -1890 -1891 -1892
v -1893 -1894 -1895 -1896 -1897 -1898 -1899 -1900 -1901 -1902 -1903 -1904
v -1905 -1906 -1907 -1908 -1909 -1910 -1911 -1912 -1913 -1914 -1915 -1916
v -1917 -1918 -1919 -1920 -1921 -1922 -1923 -1924 -1925 -1926 -1927 -1928
v -1929 -1930 -1931 -1932 -1933 1934 1935 1936 1937 1938 1939 1940 1941 1942
v 1943 1944 1945 1946 1947 1948 1949 1950 1951 1952 -1953 -1954 -1955 -1956
v -1957 -1958 -1959 -1960 -1961 -1962 -1963 -1964 -1965 -1966 -1967 -1968
v -1969 -1970 -1971 -1972 -1973 -1974 -1975 -1976 -1977 -1978 -1979 -1980
v -1981 -1982 -1983 -1984 -1985 -1986 -1987 -1988 -1989 -1990 -1991 -1992
v -1993 -1994 -1995 -1996 -1997 -1998 -1999 -2000 -2001 -2002 -2003 -2004
v -2005 -2006 -2007 -2008 -2009 -2010 2011 2012 2013 2014 2015 2016 2017 2018
v 2019 2020 2021 2022 2023 2024 2025 2026 -2027 -2028 -2029 -2030 -2031 -2032
v -2033 -2034 -2035 -2036 -2037 -2038 -2039 -2040 -2041 -2042 -2043 -2044
v -2045 -2046 -2047 -2048 -2049 -2050 -2051 -2052 -2053 -2054 -2055 -2056
v -2057 -2058 -2059 -2060 -2061 -2062 -2063 -2064 -2065 -2066 -2067 -2068
v -2069 -2070 -2071 -2072 -2073 -2074 -2075 -2076 -2077 -2078 -2079 -2080
v -2081 -2082 -2083 -2084 -2085 -2086 2087 2088 2089 2090 2091 2092 2093 2094
v 2095 2096 2097 2098 2099 2100 -2101 -2102 -2103 -2104 -2105 -2106 -2107
v -2108 -2109 -2110 -2111 -2112 -2113 -2114 -2115 -2116 -2117 -2118 -2119
v -2120 -2121 -2122 -2123 -2124 -2125 -2126 -2127 -2128 -2129 -2130 -2131
v -2132 -2133 -2134 -2135 -2136 -2137 -2138 -2139 -2140 -2141 -2142 -2143
v -2144 -2145 -2146 -2147 -2148 -2149 -2150 -2151 -2152 -2153 -2154 -2155
v -2156 -2157 -2158 -2159 -2160 -2161 2162 2163 2164 2165 2166 2167 2168 2169
v 2170 2171 2172 2173 2174 -2175 -2176 -2177 -2178 -2179 -2180 -2181 -2182
v -2183 -2184 -2185 -2186 -2187 -2188 -2189 -2190 -2191 -2192 -2193 -2194
v -2195 -2196 -2197 -2198 -2199 -2200 -2201 -2202 -2203 -2204 -2205 -2206
v -2207 -2208 -2209 -2210 -2211 -2212 -2213 -2214 -2215 -2216 -2217 -2218
v -2219 -2220 -2221 -2222 -2223 -2224 -2225 -2226 -2227 -2228 -2229 -2230
v -2231 -2232 -2233 -2234 -2235 -2236 2237 2238 2239 2240 2241 2242 2243 2244
v 2245 2246 2247 2248 -2249 -2250 -2251 -2252 -2253 -2254 -2255 -2256 -2257
v -2258 -2259 -2260 -2261 -2262 -2263 -2264 -2265 -2266 -2267 -2268 -2269
v -2270 -2271 -2272 -2273 -2274 -2275 -2276 -2277 -2278 -2279 -2280 -2281
v -2282 -2283 -2284 -2285 -2286 -2287 -2288 -2289 -2290 -2291 -2292 -2293
v -2294 -2295 -2296 -2297 -2298 -2299 -2300 -2301 -2302 -2303 -2304 -2305
v -2306 -2307 -2308 -2309 -2310 -2311 2312 2313 2314 2315 2316 2317 2318 2319
v 2320 2321 2322 -2323 -2324 -2325 -2326 -2327 -2328 -2329 -2330 -2331 -2332
v -2333 -2334 -2335 -2336 -2337 -2338 -2339 -2340 -2341 -2342 -2343 -2344
v -2345 -2346 -2347 -2348 -2349 -2350 -2351 -2352 -2353 -2354 -2355 -2356
v -2357 -2358 -2359 -2360 -2361 -2362 -2363 -2364 -2365 -2366 -2367 -2368
v -2369 -2370 -2371 -2372 -2373 -2374 -2375 -2376 -2377 -2378 -2379 -2380
v -2381 -2382 -2383 -2384 -2385 -2386 2387 2388 2389 2390 2391 2392 2393 2394
v 2395 2396 -2397 -2398 -2399 -2400 -2401 -2402 -2403 -2404 -2405 -2406 -2407
v -2408 -2409 -2410 -2411 -2412 -2413 -2414 -2415 -2416 -2417 -2418 -2419
v -2420 -2421 -2422 -2423 -2424 -2425 -2426 -2427 -2428 -2429 -2430 -2431
v -2432 -2433 -2434 -2435 -2436 -2437 -2438 -2439 -2440 -2441 -2442 -2443
v -2444 -2445 -2446 -2447 -2448 -2449 -2450 -2451 -2452 -2453 -2454 -2455
v -2456 -2457 -2458 -2459 -2460 -2461 -2462 2463 2464 2465 2466 2467 2468 2469
v 2470 -2471 -2472 -2473 -2474 -2475 -2476 -2477 -2478 -2479 -2480 -2481 -2482
v -2483 -2484 -2485 -2486 -2487 -2488 -2489 -2490 -2491 -2492 -2493 -2494
v -2495 -2496 -2497 -2498 -2499 -2500 -2501 -2502 -2503 -2504 -2505 -2506
v -2507 -2508 -2509 -2510 -2511 -2512 -2513 -2514 -2515 -2516 -2517 -2518
v -2519 -2520 -2521 -2522 -2523 -2524 -2525 -2526 -2527 -2528 -2529 -2530
v -2531 -2532 -2533 -2534 -2535 -2536 -2537 2538 2539 2540 2541 2542 2543 2544
v -2545 -2546 -2547 -2548 -2549 -2550 -2551 -2552 -2553 -2554 -2555 -2556
v -2557 -2558 -2559 -2560 -2561 -2562 -2563 -2564 -2565 -2566 -2567 -2568
v -2569 -2570 -2571 -2572 -2573 -2574 -2575 -2576 -2577 -2578 -2579 -2580
v -2581 -2582 -2583 -2584 -2585 -2586 -2587 -2588 -2589 -2590 -2591 -2592
v -2593 -2594 -2595 -2596 -2597 -2598 -2599 -2600 -2601 -2602 -2603 -2604
v -2605 -2606 -2607 -2608 -2609 -2610 -2611 -2612 -2613 -2614 2615 2616 2617
v 2618 -2619 -2620 -2621 -2622 -2623 -2624 -2625 -2626 -2627 -2628 -2629 -2630
v -2631 -2632 -2633 -2634 -2635 -2636 -2637 -2638 -2639 -2640 -2641 -2642
v -2643 -2644 -2645 -2646 -2647 -2648 -2649 -2650 -2651 -2652 -2653 -2654
v -2655 -2656 -2657 -2658 -2659 -2660 -2661 -2662 -2663 -2664 -2665 -2666
v -2667 -2668 -2669 -2670 -2671 -2672 -2673 -2674 -2675 -2676 -2677 -2678
v -2679 -2680 -2681 -2682 -2683 -2684 -2685 -2686 -2687 -2688 -2689 -2690
v -2691 -2692 0
c 
c --- [ run-time profiling ] -------------------------------------------------
c 
c process time taken by individual solving procedures
c (percentage relative to process time for solving)
c 
c        65.96   98.24% search
c        41.41   61.67% stable
c        23.26   34.65% unstable
c         1.28    1.91% walk
c         1.18    1.76% simplify
c         0.41    0.62% subsume
c         0.28    0.42% vivify
c         0.20    0.30% probe
c         0.08    0.11% ternary
c         0.07    0.11% elim
c         0.00    0.01% parse
c         0.00    0.00% lucky
c   =================================
c        67.14   99.99% solve
c 
c last line shows process time for solving
c (percentage relative to total process time)
c 
c --- [ statistics ] ---------------------------------------------------------
c 
c chronological:            167569        19.46 %  of conflicts
c conflicts:                861074     12825.52    per second
c decisions:               1446325     21542.72    per second
c eliminated:                 2049        76.11 %  of all variables
c fixed:                        83         3.08 %  of all variables
c learned:                  845999        98.25 %  per conflict
c learned_lits:           34903650       100.00 %  learned literals
c minimized:                     0         0.00 %  learned literals
c shrunken:               10391773        29.77 %  learned literals
c minishrunken:            3493146        10.01 %  learned literals
c propagations:           70931249         1.06 M  per second
c reduced:                  683916        79.43 %  per conflict
c rephased:                     41     21001.80    interval
c restarts:                  25240        34.12    interval
c stabilizing:                   5        60.40 %  of conflicts
c subsumed:                 108189         6.26 %  of all clauses
c strengthened:               6278         0.36 %  of all clauses
c ternary:                      13         0.04 %  of resolved
c vivified:                    115         0.01 %  of all clauses
c walked:                       13     66236.46    interval
c weakened:                   8762         2.88    average size
c 
c seconds are measured in process time for solving
c 
c --- [ resources ] ----------------------------------------------------------
c 
c total process time since initialization:        67.14    seconds
c total real time since initialization:           67.16    seconds
c maximum resident set size of process:           20.78    MB
c 
c --- [ shutting down ] ------------------------------------------------------
c 
c exit 10
